NAME          neos-5192052-neckar
ROWS
 L  R0001
 L  R0002
 L  R0003
 L  R0004
 L  R0005
 L  R0006
 L  R0007
 L  R0008
 L  R0009
 L  R0010
 L  R0011
 L  R0012
 L  R0013
 L  R0014
 L  R0015
 L  R0016
 L  R0017
 L  R0018
 L  R0019
 L  R0020
 L  R0021
 L  R0022
 L  R0023
 L  R0024
 L  R0025
 L  R0026
 L  R0027
 L  R0028
 L  R0029
 L  R0030
 L  R0031
 L  R0032
 L  R0033
 L  R0034
 L  R0035
 L  R0036
 L  R0037
 L  R0038
 E  R0039
 E  R0040
 E  R0041
 E  R0042
 E  R0043
 E  R0044
 E  R0045
 E  R0046
 E  R0047
 E  R0048
 E  R0049
 E  R0050
 E  R0051
 E  R0052
 E  R0053
 E  R0054
 E  R0055
 E  R0056
 L  R0057
 N  R0058
COLUMNS
    C0001     R0001     1
    C0001     R0016     1
    C0001     R0033     1
    C0001     R0039     1
    C0001     R0058     -50
    C0002     R0001     1
    C0002     R0017     1
    C0002     R0033     1
    C0002     R0040     0.8
    C0002     R0058     -52
    C0003     R0001     1
    C0003     R0018     1
    C0003     R0033     1
    C0003     R0041     0.2
    C0003     R0058     -54
    C0004     R0001     1
    C0004     R0019     1
    C0004     R0034     1
    C0004     R0042     1
    C0004     R0058     -114
    C0005     R0001     1
    C0005     R0020     1
    C0005     R0034     1
    C0005     R0043     0.8
    C0005     R0058     -119
    C0006     R0001     1
    C0006     R0021     1
    C0006     R0035     1
    C0006     R0045     1
    C0006     R0058     -115
    C0007     R0001     1
    C0007     R0022     1
    C0007     R0035     1
    C0007     R0046     0.8
    C0007     R0058     -121
    C0008     R0001     1
    C0008     R0023     1
    C0008     R0035     1
    C0008     R0047     0.2
    C0008     R0058     -122
    C0009     R0001     1
    C0009     R0024     1
    C0009     R0036     1
    C0009     R0048     1
    C0009     R0058     -114
    C0010     R0001     1
    C0010     R0025     1
    C0010     R0036     1
    C0010     R0049     0.8
    C0010     R0058     -117
    C0011     R0001     1
    C0011     R0026     1
    C0011     R0036     1
    C0011     R0050     0.2
    C0011     R0058     -118
    C0012     R0001     1
    C0012     R0027     1
    C0012     R0037     1
    C0012     R0051     1
    C0012     R0058     -116
    C0013     R0001     1
    C0013     R0028     1
    C0013     R0037     1
    C0013     R0052     0.8
    C0013     R0058     -119
    C0014     R0001     1
    C0014     R0029     1
    C0014     R0037     1
    C0014     R0053     0.2
    C0014     R0058     -120
    C0015     R0001     1
    C0015     R0030     1
    C0015     R0038     1
    C0015     R0054     1
    C0015     R0058     -116
    C0016     R0001     1
    C0016     R0031     1
    C0016     R0038     1
    C0016     R0055     0.8
    C0016     R0058     -120
    C0017     R0001     1
    C0017     R0032     1
    C0017     R0038     1
    C0017     R0056     0.2
    C0017     R0058     -121
    C0018     R0002     1
    C0018     R0016     1
    C0018     R0033     1
    C0018     R0039     1
    C0018     R0058     -117
    C0019     R0002     1
    C0019     R0017     1
    C0019     R0033     1
    C0019     R0040     0.8
    C0019     R0058     -119
    C0020     R0002     1
    C0020     R0018     1
    C0020     R0033     1
    C0020     R0041     0.2
    C0020     R0058     -121
    C0021     R0002     1
    C0021     R0019     1
    C0021     R0034     1
    C0021     R0042     1
    C0021     R0058     -65
    C0022     R0002     1
    C0022     R0020     1
    C0022     R0034     1
    C0022     R0043     0.8
    C0022     R0058     -70
    C0023     R0002     1
    C0023     R0021     1
    C0023     R0035     1
    C0023     R0045     1
    C0023     R0058     -66
    C0024     R0002     1
    C0024     R0022     1
    C0024     R0035     1
    C0024     R0046     0.8
    C0024     R0058     -72
    C0025     R0002     1
    C0025     R0023     1
    C0025     R0035     1
    C0025     R0047     0.2
    C0025     R0058     -73
    C0026     R0002     1
    C0026     R0024     1
    C0026     R0036     1
    C0026     R0048     1
    C0026     R0058     -55
    C0027     R0002     1
    C0027     R0025     1
    C0027     R0036     1
    C0027     R0049     0.8
    C0027     R0058     -58
    C0028     R0002     1
    C0028     R0026     1
    C0028     R0036     1
    C0028     R0050     0.2
    C0028     R0058     -59
    C0029     R0002     1
    C0029     R0027     1
    C0029     R0037     1
    C0029     R0051     1
    C0029     R0058     -58
    C0030     R0002     1
    C0030     R0028     1
    C0030     R0037     1
    C0030     R0052     0.8
    C0030     R0058     -61
    C0031     R0002     1
    C0031     R0029     1
    C0031     R0037     1
    C0031     R0053     0.2
    C0031     R0058     -62
    C0032     R0002     1
    C0032     R0030     1
    C0032     R0038     1
    C0032     R0054     1
    C0032     R0058     -60
    C0033     R0002     1
    C0033     R0031     1
    C0033     R0038     1
    C0033     R0055     0.8
    C0033     R0058     -64
    C0034     R0002     1
    C0034     R0032     1
    C0034     R0038     1
    C0034     R0056     0.2
    C0034     R0058     -65
    C0035     R0003     1
    C0035     R0016     1
    C0035     R0033     1
    C0035     R0039     1
    C0035     R0058     -117
    C0036     R0003     1
    C0036     R0017     1
    C0036     R0033     1
    C0036     R0040     0.8
    C0036     R0058     -119
    C0037     R0003     1
    C0037     R0018     1
    C0037     R0033     1
    C0037     R0041     0.2
    C0037     R0058     -121
    C0038     R0003     1
    C0038     R0019     1
    C0038     R0034     1
    C0038     R0042     1
    C0038     R0058     -114
    C0039     R0003     1
    C0039     R0020     1
    C0039     R0034     1
    C0039     R0043     0.8
    C0039     R0058     -119
    C0040     R0003     1
    C0040     R0021     1
    C0040     R0035     1
    C0040     R0045     1
    C0040     R0058     -36
    C0041     R0003     1
    C0041     R0022     1
    C0041     R0035     1
    C0041     R0046     0.8
    C0041     R0058     -42
    C0042     R0003     1
    C0042     R0023     1
    C0042     R0035     1
    C0042     R0047     0.2
    C0042     R0058     -43
    C0043     R0003     1
    C0043     R0024     1
    C0043     R0036     1
    C0043     R0048     1
    C0043     R0058     -37
    C0044     R0003     1
    C0044     R0025     1
    C0044     R0036     1
    C0044     R0049     0.8
    C0044     R0058     -40
    C0045     R0003     1
    C0045     R0026     1
    C0045     R0036     1
    C0045     R0050     0.2
    C0045     R0058     -41
    C0046     R0003     1
    C0046     R0027     1
    C0046     R0037     1
    C0046     R0051     1
    C0046     R0058     -40
    C0047     R0003     1
    C0047     R0028     1
    C0047     R0037     1
    C0047     R0052     0.8
    C0047     R0058     -43
    C0048     R0003     1
    C0048     R0029     1
    C0048     R0037     1
    C0048     R0053     0.2
    C0048     R0058     -44
    C0049     R0003     1
    C0049     R0030     1
    C0049     R0038     1
    C0049     R0054     1
    C0049     R0058     -42
    C0050     R0003     1
    C0050     R0031     1
    C0050     R0038     1
    C0050     R0055     0.8
    C0050     R0058     -46
    C0051     R0003     1
    C0051     R0032     1
    C0051     R0038     1
    C0051     R0056     0.2
    C0051     R0058     -47
    C0052     R0004     1
    C0052     R0016     1
    C0052     R0033     1
    C0052     R0039     1
    C0052     R0058     -117
    C0053     R0004     1
    C0053     R0017     1
    C0053     R0033     1
    C0053     R0040     0.8
    C0053     R0058     -119
    C0054     R0004     1
    C0054     R0018     1
    C0054     R0033     1
    C0054     R0041     0.2
    C0054     R0058     -121
    C0055     R0004     1
    C0055     R0019     1
    C0055     R0034     1
    C0055     R0042     1
    C0055     R0058     -77
    C0056     R0004     1
    C0056     R0020     1
    C0056     R0034     1
    C0056     R0043     0.8
    C0056     R0058     -82
    C0057     R0004     1
    C0057     R0021     1
    C0057     R0035     1
    C0057     R0045     1
    C0057     R0058     -58
    C0058     R0004     1
    C0058     R0022     1
    C0058     R0035     1
    C0058     R0046     0.8
    C0058     R0058     -64
    C0059     R0004     1
    C0059     R0023     1
    C0059     R0035     1
    C0059     R0047     0.2
    C0059     R0058     -65
    C0060     R0004     1
    C0060     R0024     1
    C0060     R0036     1
    C0060     R0048     1
    C0060     R0058     -40
    C0061     R0004     1
    C0061     R0025     1
    C0061     R0036     1
    C0061     R0049     0.8
    C0061     R0058     -43
    C0062     R0004     1
    C0062     R0026     1
    C0062     R0036     1
    C0062     R0050     0.2
    C0062     R0058     -44
    C0063     R0004     1
    C0063     R0027     1
    C0063     R0037     1
    C0063     R0051     1
    C0063     R0058     -44
    C0064     R0004     1
    C0064     R0028     1
    C0064     R0037     1
    C0064     R0052     0.8
    C0064     R0058     -47
    C0065     R0004     1
    C0065     R0029     1
    C0065     R0037     1
    C0065     R0053     0.2
    C0065     R0058     -48
    C0066     R0004     1
    C0066     R0030     1
    C0066     R0038     1
    C0066     R0054     1
    C0066     R0058     -45
    C0067     R0004     1
    C0067     R0031     1
    C0067     R0038     1
    C0067     R0055     0.8
    C0067     R0058     -49
    C0068     R0004     1
    C0068     R0032     1
    C0068     R0038     1
    C0068     R0056     0.2
    C0068     R0058     -50
    C0069     R0005     1
    C0069     R0016     1
    C0069     R0033     1
    C0069     R0039     1
    C0069     R0058     -117
    C0070     R0005     1
    C0070     R0017     1
    C0070     R0033     1
    C0070     R0040     0.8
    C0070     R0058     -119
    C0071     R0005     1
    C0071     R0018     1
    C0071     R0033     1
    C0071     R0041     0.2
    C0071     R0058     -121
    C0072     R0005     1
    C0072     R0019     1
    C0072     R0034     1
    C0072     R0042     1
    C0072     R0058     -41
    C0073     R0005     1
    C0073     R0020     1
    C0073     R0034     1
    C0073     R0043     0.8
    C0073     R0058     -46
    C0074     R0005     1
    C0074     R0021     1
    C0074     R0035     1
    C0074     R0045     1
    C0074     R0058     -64
    C0075     R0005     1
    C0075     R0022     1
    C0075     R0035     1
    C0075     R0046     0.8
    C0075     R0058     -70
    C0076     R0005     1
    C0076     R0023     1
    C0076     R0035     1
    C0076     R0047     0.2
    C0076     R0058     -71
    C0077     R0005     1
    C0077     R0024     1
    C0077     R0036     1
    C0077     R0048     1
    C0077     R0058     -61
    C0078     R0005     1
    C0078     R0025     1
    C0078     R0036     1
    C0078     R0049     0.8
    C0078     R0058     -64
    C0079     R0005     1
    C0079     R0026     1
    C0079     R0036     1
    C0079     R0050     0.2
    C0079     R0058     -65
    C0080     R0005     1
    C0080     R0027     1
    C0080     R0037     1
    C0080     R0051     1
    C0080     R0058     -57
    C0081     R0005     1
    C0081     R0028     1
    C0081     R0037     1
    C0081     R0052     0.8
    C0081     R0058     -60
    C0082     R0005     1
    C0082     R0029     1
    C0082     R0037     1
    C0082     R0053     0.2
    C0082     R0058     -61
    C0083     R0005     1
    C0083     R0030     1
    C0083     R0038     1
    C0083     R0054     1
    C0083     R0058     -58
    C0084     R0005     1
    C0084     R0031     1
    C0084     R0038     1
    C0084     R0055     0.8
    C0084     R0058     -62
    C0085     R0005     1
    C0085     R0032     1
    C0085     R0038     1
    C0085     R0056     0.2
    C0085     R0058     -63
    C0086     R0006     1
    C0086     R0016     1
    C0086     R0033     1
    C0086     R0039     1
    C0086     R0058     -117
    C0087     R0006     1
    C0087     R0017     1
    C0087     R0033     1
    C0087     R0040     0.8
    C0087     R0058     -119
    C0088     R0006     1
    C0088     R0018     1
    C0088     R0033     1
    C0088     R0041     0.2
    C0088     R0058     -121
    C0089     R0006     1
    C0089     R0019     1
    C0089     R0034     1
    C0089     R0042     1
    C0089     R0058     -43
    C0090     R0006     1
    C0090     R0020     1
    C0090     R0034     1
    C0090     R0043     0.8
    C0090     R0058     -48
    C0091     R0006     1
    C0091     R0021     1
    C0091     R0035     1
    C0091     R0045     1
    C0091     R0058     -36
    C0092     R0006     1
    C0092     R0022     1
    C0092     R0035     1
    C0092     R0046     0.8
    C0092     R0058     -42
    C0093     R0006     1
    C0093     R0023     1
    C0093     R0035     1
    C0093     R0047     0.2
    C0093     R0058     -43
    C0094     R0006     1
    C0094     R0024     1
    C0094     R0036     1
    C0094     R0048     1
    C0094     R0058     -40
    C0095     R0006     1
    C0095     R0025     1
    C0095     R0036     1
    C0095     R0049     0.8
    C0095     R0058     -43
    C0096     R0006     1
    C0096     R0026     1
    C0096     R0036     1
    C0096     R0050     0.2
    C0096     R0058     -44
    C0097     R0006     1
    C0097     R0027     1
    C0097     R0037     1
    C0097     R0051     1
    C0097     R0058     -42
    C0098     R0006     1
    C0098     R0028     1
    C0098     R0037     1
    C0098     R0052     0.8
    C0098     R0058     -45
    C0099     R0006     1
    C0099     R0029     1
    C0099     R0037     1
    C0099     R0053     0.2
    C0099     R0058     -46
    C0100     R0006     1
    C0100     R0030     1
    C0100     R0038     1
    C0100     R0054     1
    C0100     R0058     -44
    C0101     R0006     1
    C0101     R0031     1
    C0101     R0038     1
    C0101     R0055     0.8
    C0101     R0058     -48
    C0102     R0006     1
    C0102     R0032     1
    C0102     R0038     1
    C0102     R0056     0.2
    C0102     R0058     -49
    C0103     R0007     1
    C0103     R0039     -1
    C0103     R0058     255
    C0104     R0008     1
    C0104     R0040     -1
    C0104     R0058     215
    C0105     R0009     1
    C0105     R0041     -1
    C0105     R0058     315
    C0106     R0010     1
    C0106     R0039     -1
    C0106     R0058     255
    C0107     R0011     1
    C0107     R0040     -1
    C0107     R0058     215
    C0108     R0012     1
    C0108     R0041     -1
    C0108     R0058     315
    C0109     R0013     1
    C0109     R0039     -1
    C0109     R0058     250
    C0110     R0014     1
    C0110     R0040     -1
    C0110     R0058     210
    C0111     R0015     1
    C0111     R0041     -1
    C0111     R0058     310
    C0112     R0007     1
    C0112     R0042     -1
    C0112     R0058     255
    C0113     R0008     1
    C0113     R0043     -1
    C0113     R0058     215
    C0114     R0009     1
    C0114     R0044     -1
    C0114     R0058     315
    C0115     R0010     1
    C0115     R0042     -1
    C0115     R0058     255
    C0116     R0011     1
    C0116     R0043     -1
    C0116     R0058     215
    C0117     R0012     1
    C0117     R0044     -1
    C0117     R0058     315
    C0118     R0013     1
    C0118     R0042     -1
    C0118     R0058     250
    C0119     R0014     1
    C0119     R0043     -1
    C0119     R0058     210
    C0120     R0015     1
    C0120     R0044     -1
    C0120     R0058     310
    C0121     R0007     1
    C0121     R0045     -1
    C0121     R0058     250
    C0122     R0008     1
    C0122     R0046     -1
    C0122     R0058     210
    C0123     R0009     1
    C0123     R0047     -1
    C0123     R0058     310
    C0124     R0010     1
    C0124     R0045     -1
    C0124     R0058     250
    C0125     R0011     1
    C0125     R0046     -1
    C0125     R0058     210
    C0126     R0012     1
    C0126     R0047     -1
    C0126     R0058     310
    C0127     R0013     1
    C0127     R0045     -1
    C0127     R0058     245
    C0128     R0014     1
    C0128     R0046     -1
    C0128     R0058     205
    C0129     R0015     1
    C0129     R0047     -1
    C0129     R0058     305
    C0130     R0007     1
    C0130     R0048     -1
    C0130     R0058     241
    C0131     R0008     1
    C0131     R0049     -1
    C0131     R0058     201
    C0132     R0009     1
    C0132     R0050     -1
    C0132     R0058     301
    C0133     R0010     1
    C0133     R0048     -1
    C0133     R0058     241
    C0134     R0011     1
    C0134     R0049     -1
    C0134     R0058     201
    C0135     R0012     1
    C0135     R0050     -1
    C0135     R0058     301
    C0136     R0013     1
    C0136     R0048     -1
    C0136     R0058     233
    C0137     R0014     1
    C0137     R0049     -1
    C0137     R0058     193
    C0138     R0015     1
    C0138     R0050     -1
    C0138     R0058     293
    C0139     R0007     1
    C0139     R0051     -1
    C0139     R0058     241
    C0140     R0008     1
    C0140     R0052     -1
    C0140     R0058     201
    C0141     R0009     1
    C0141     R0053     -1
    C0141     R0058     301
    C0142     R0010     1
    C0142     R0051     -1
    C0142     R0058     241
    C0143     R0011     1
    C0143     R0052     -1
    C0143     R0058     201
    C0144     R0012     1
    C0144     R0053     -1
    C0144     R0058     301
    C0145     R0013     1
    C0145     R0051     -1
    C0145     R0058     233
    C0146     R0014     1
    C0146     R0052     -1
    C0146     R0058     193
    C0147     R0015     1
    C0147     R0053     -1
    C0147     R0058     293
    C0148     R0007     1
    C0148     R0054     -1
    C0148     R0058     241
    C0149     R0008     1
    C0149     R0055     -1
    C0149     R0058     201
    C0150     R0009     1
    C0150     R0056     -1
    C0150     R0058     301
    C0151     R0010     1
    C0151     R0054     -1
    C0151     R0058     241
    C0152     R0011     1
    C0152     R0055     -1
    C0152     R0058     201
    C0153     R0012     1
    C0153     R0056     -1
    C0153     R0058     301
    C0154     R0013     1
    C0154     R0054     -1
    C0154     R0058     233
    C0155     R0014     1
    C0155     R0055     -1
    C0155     R0058     193
    C0156     R0015     1
    C0156     R0056     -1
    C0156     R0058     293
    INT1      'MARKER'                 'INTORG'
    C0157     R0033     -250000
    C0157     R0057     1
    C0157     R0058     -500000
    C0158     R0034     -500000
    C0158     R0057     1
    C0158     R0058     -500000
    C0159     R0035     -360000
    C0159     R0057     1
    C0159     R0058     -500000
    C0160     R0036     -780000
    C0160     R0057     1
    C0160     R0058     -500000
    C0161     R0037     -210000
    C0161     R0057     1
    C0161     R0058     -500000
    C0162     R0038     -240000
    C0162     R0057     1
    C0162     R0058     -500000
    C0163     R0016     -100000
    C0163     R0058     -50000
    C0164     R0017     -100000
    C0164     R0058     -40000
    C0165     R0018     -50000
    C0165     R0058     -80000
    C0166     R0019     -300000
    C0166     R0058     -50000
    C0167     R0020     -100000
    C0167     R0058     -60000
    C0168     R0058     -80000
    C0169     R0021     -200000
    C0169     R0058     -60000
    C0170     R0022     -100000
    C0170     R0058     -70000
    C0171     R0023     -60000
    C0171     R0058     -80000
    C0172     R0024     -400000
    C0172     R0058     -50000
    C0173     R0025     -280000
    C0173     R0058     -60000
    C0174     R0026     -100000
    C0174     R0058     -80000
    C0175     R0027     -100000
    C0175     R0058     -60000
    C0176     R0028     -60000
    C0176     R0058     -70000
    C0177     R0029     -50000
    C0177     R0058     -80000
    C0178     R0030     -100000
    C0178     R0058     -60000
    C0179     R0031     -90000
    C0179     R0058     -70000
    C0180     R0032     -50000
    C0180     R0058     -80000
    INT1END   'MARKER'                 'INTEND'
RHS
    B         R0001     70000
    B         R0002     80000
    B         R0003     300000
    B         R0004     250000
    B         R0005     200000
    B         R0006     300000
    B         R0007     1200000
    B         R0008     960000
    B         R0009     240000
    B         R0010     1200000
    B         R0011     960000
    B         R0012     240000
    B         R0013     1200000
    B         R0014     960000
    B         R0015     240000
    B         R0057     4
BOUNDS
 UP BOUND     C0157     1
 UP BOUND     C0158     1
 UP BOUND     C0159     1
 UP BOUND     C0160     1
 UP BOUND     C0161     1
 UP BOUND     C0162     1
 UP BOUND     C0163     1
 UP BOUND     C0164     1
 UP BOUND     C0165     1
 UP BOUND     C0166     1
 UP BOUND     C0167     1
 UP BOUND     C0168     1
 UP BOUND     C0169     1
 UP BOUND     C0170     1
 UP BOUND     C0171     1
 UP BOUND     C0172     1
 UP BOUND     C0173     1
 UP BOUND     C0174     1
 UP BOUND     C0175     1
 UP BOUND     C0176     1
 UP BOUND     C0177     1
 UP BOUND     C0178     1
 UP BOUND     C0179     1
 UP BOUND     C0180     1
ENDATA
